(set-logic ALL)
(declare-fun var0 () String)
(assert (str.in_re var0 (re.++ (re.union (re.* (str.to_re "0")) (re.union (str.to_re "11") (str.to_re "2"))) (re.++ (re.* (re.* (str.to_re "33"))) (re.++ (re.* (re.* (str.to_re "4"))) (re.++ (re.* (re.* (str.to_re "555"))) (re.++ (re.* (re.* (str.to_re "666"))) (re.++ (re.union (re.+ (str.to_re "7")) (re.* (str.to_re "888"))) (re.++ (re.* (re.+ (str.to_re "99"))) (re.++ (re.union (re.+ (str.to_re "aa")) (re.* (str.to_re "b"))) (re.++ (re.+ (re.* (str.to_re "c"))) (re.union (re.union (str.to_re "dd") (str.to_re "ee")) (re.+ (str.to_re "f"))))))))))))))
(assert (<= 326 (str.len var0)))
(check-sat)